7146.0
1 1 1 1 1 1 1 1 1 1 
5 6 4 1 7 9 3 7 8 8 4 6 2 6 2 7 7 3 0 6 6 1 4 1 6 5 5 4 8 5 8 0 0 0 3 9 2 6 6 2 2 7 3 3 3 5 0 5 6 4 1 1 6 6 2 7 2 8 8 8 0 0 1 5 0 6 6 6 4 4 0 4 4 0 7 7 2 2 9 5 7 2 9 9 7 9 9 2 9 2 